NAME: rbg050c.sop
TYPE: SOP
COMMENT: Stacker crane application (Norbert Ascheuer)
DIMENSION: 52
EDGE_WEIGHT_TYPE: EXPLICIT
EDGE_WEIGHT_FORMAT: FULL_MATRIX 
EDGE_WEIGHT_SECTION
52
    0    0    0    0    0    0    0    0    0    0    0    0    0    0    0    0    0    0    0    0    0    0    0    0    0    0    0    0    0    0    0    0    0    0    0    0    0    0    0    0    0    0    0    0    0    0    0    0    0    0    0 1000000
   -1    0   11   10   23   24   23   24   24   24   24    0   24   24   24   15   15   16   24   20   10   15   24   14   16    9   11   24   15   20   24   24   23   10   23   10   24   24   23   24   24   14   18   17   24   20    6   24   23   11   14    0
   -1    0    0   11   23   24   23   24   24   24   24   10   24   24   24   14   21   15   24   19   11   21   24   15   18   15   12   23   14   18   24   24   21    0   23   11   23   24   23   24   23   12   16   23   24   18   12   24   23   12   15    0
   -1   11   12    0   23   25   24   25   25   25   25   10   25   25   25   16   18   18   24   21    2   18   25   12   15   12   10   24   16   21   24   25   23   11   24    5   24   25   23   25   24   15   20   20   25   21   10   24   23   10   12    0
   -1   -1   -1   -1    0   33   31   33   33   33   33   23   33   33   33   26   23   27   31   28   23   23   33   18   15   23   23   31   26   28   31   33   29   24   31   23   31   33   30   33   31   25   27   23   33   28   23   31   10   23   18    0
   -1   -1   -1   -1   21    0   23   24   24   24   24   11   24   24   24   12   11   14   23   16   12   11   24   16   20   11   12   23   12   16   23   24   20   10   23   12   23   24   21   24   23   12   15   12   24   16   11   23   24   12   16    0
   -1   -1   -1   -1   30   33    0   33   33   33   33   23   33   33   33   26   23   27   31   28   23   23   33   18   15   23   23   31   26   28   31   33   29   24   31   23   31   33   30   33   31   25   27   23   33   28   23   31   10   23   18    0
   -1   -1   -1   -1   -1   18   10    0   18   18   18   24   18   18   18   18   24   19   19   14   24   24   18   26   27   24   24   19   18   19   19   18   12   23   10   24    4   18   19   18   19   20   15   24   18   14   24   19   31   24   26    0
   -1   -1   -1   -1   -1   -1   -1   15    0   15   15   21   15   15   15   12   21   12   14   14   23   21   15   24   25   21   23   12   12   10   14   15   14   20   12   23   12   15   11   15   12   14   11   21   15   10   21   14   28   23   24    0
   -1   -1   -1   -1   -1   -1   -1   16   16    0   16   20   16   16   16   12   20   11   15    9   21   20   16   24   24   20   23   14   12   10   15   16   11   18   12   21   14   16   12   16   14   12   10   20   16    4   20   15   27   23   24    0
   -1   -1   -1   -1   -1   -1   -1   18   18   18    0   18   18   18   18   11   18   12   16   10   20   18   18   23   24   18   21   15   11   12   16   18   12   16   14   20   15   18   12   18   15   12    3   18   18   10   18   16   27   21   23    0
   -1   -1   -1   10   23   24   23   24   24   24   24    0   24   24   24   15   18   16   24   20   10   18   24   14   16   12   11   24   15   20   24   24   23   10   23   10   24   24   23   24   24   14   18   20   24   20    9   24   23   11   14    0
   -1   -1   -1   -1   -1   -1   -1   27   27   27   27   14    0   27   27   23   14   23   27   24   12   14   27    6   11   14   12   26   23   24   27   27   24   15   25   12   26   27   25   27   26   21   23   16   27   24   14   27   16   12    6    0
   -1   -1   -1   -1   -1   -1   -1   18   18   18   18   -1   18    0   18   11   18   10   16   10   20   18   18   23   24   18   21   15   11   10   16   18   12   16   14   20   15   18   12   18   15   12    0   18   18   10   18   16   27   21   23    0
   -1   -1   -1   -1   -1   -1   -1   25   25   25   25   -1   25   25    0   16   14   18   24   21    1   14   25   12   15   10   10   24   16   21   24   25   23   11   24    1   24   25   23   25   24   15   20   16   25   21   10   24   23   10   12    0
   -1   -1   -1   -1   16   23   18   23   23   23   23   14   23   23   23    0   21   11   21   19   15   21   23   21   23   15   16   20   10   12   21   23   19   12   18   15   20   23   16   23   20   11   12   23   23   15   14   21   25   16   21    0
   -1   -1   -1   -1   16   23   18   23   23   23   23   14   23   23   23   10    0   11   21   19   15   21   23   21   23   15   16   20   10   12   21   23   19   12   18   15   20   23   16   23   20   11   12   23   23   15   14   21   25   16   21    0
   -1   -1   -1   -1   12    0   14    0    0    0    0   24    0    0    0   21   24    0   10   18   25   24    0   27   28   24   25   11   21   16   10    0   18   24   12   25   14    0   12    0   11   23   18   24    0   16   24   10   31   25   27    0
   -1   -1   -1   -1    0   12   10   12   12   12   12   23   12   12   12   15   23   14    0   12   23   23   12   25   26   23   24   11   15   12   12   12   10   23   10   23   11   12   10   12   11   16   12   23   12   12   23   12   29   24   25    0
   -1   -1   -1   -1   12   10   15   10   10   10   10   24   10   10   10   20   24   18    0    0   24   24   10   27   28   24   25   10   20   15    0   10   19   24   11   24   15   10   12   10   10   21   16   24   10   15   24    0   31   25   27    0
   -1   -1   -1   -1   23   25   24   25   25   25   25   10   25   25   25   16   18   18   24   21    0   18   25   12   15   12   10   24   16   21   24   25   23   11   24    5   24   25   23   25   24   15   20   20   25   21   10   24   23   10   12    0
   -1   -1   -1   -1   16   23   18   23   23   23   23   14   23   23   23   10   21   11   21   19   15    0   23   21   23   15   16   20   10   12   21   23   19   12   18   15   20   23   16   23   20   11   12   23   23   15   14   21   25   16   21    0
   -1   -1   -1   -1   -1   -1   -1   -1   -1   -1   -1   -1   -1   -1   20   -1   -1   -1   -1   -1   -1   16    0   23   24   16   20   16   10   11   18   20   12   15   15   18   16   20   14   20   16   11   10   16   20   11   16   18   26   20   23    0
   -1   -1   -1   -1   25   28   26   28   28   28   28   15   28   28   28   23   15   23   27   24   14   15   28    0   10   15   12   27   23   24   27   28   25   16   26   14   27   28   25   28   27   23   24   17   28   24   15   27   15   12   10    0
   -1   -1   -1   -1   25   27   25   27   27   27   27   14   27   27   27   23   21   23   27   24   12   21   27    0    0   15   12   26   23   24   27   27   24   15   25   12   26   27   25   27   26   21   23   23   27   24   14   27   16   12    0    0
   -1   -1   -1   -1   -1   -1   -1   -1   -1   -1   -1   -1   -1   -1   -1   -1   -1   -1   -1   -1   -1   -1   33   -1   15    0   23   31   26   28   31   33   29   24   31   23   31   33   30   33   31   25   27   23   33   28   23   31   10   23   18    0
   -1   -1   -1   -1   12    0   14    0    0    0    0   24    0    0    0   21   24   20   10   18   25   24    0   27   28   24    0   11   21   16   10    0   18   24   12   25   14    0   12    0   11   23   18   24    0   16   24   10   31   25   27    0
   -1   -1   -1   -1   12    0   14    0    0    0    0   24    0    0    0   21   24   20   10   18   25   24    0   27   28   24   25    0   21   16   10    0   18   24   12   25   14    0   12    0   11   23   18   24    0   16   24   10   31   25   27    0
   -1   -1   -1   -1   16   23   18   23   23   23   23   14   23   23   23   10   21   11   21   19   15   21   23   21   23   15   16   20    0   12   21   23   19   12   18   15   20   23   16   23   20   11   12   23   23   15   14   21   25   16   21    0
   -1   -1   -1   -1   12    0   14    0    0    0    0   24    0    0    0   21   24   20   10   18   25   24    0   27   28   24   25   11   21    0   10    0   18   24   12   25   14    0   12    0   11   23   18   24    0   16   24   10   31   25   27    0
   -1   -1   -1   -1   12    0   14    0    0    0    0   24    0    0    0   21   24   20   10   18   25   24    0   27   28   24   25   11   21   16    0    0   18   24   12   25   14    0   12    0   11   23   18   24    0   16   24   10   31   25   27    0
   -1   -1   -1   -1   -1   -1   -1   -1   -1   -1   -1   -1   -1   -1   -1   -1   -1   -1   -1   -1   -1   -1   12   -1   -1   23   -1   -1   -1   -1   11    0   11   23    0   24   10   12   10   12   10   18   14   23   12   12   23   11   30   24   25    0
   -1   -1   -1   -1   30   33   31   33   33   33   33   23   33   33   33   26   23   27   31   28   23   23   33   18   15   23   23   31   26   28   31   33    0   24   31   23   31   33   30   33   31   25   27   23   33   28   23   31   10   23   18    0
   -1   -1   -1   -1   24   25   24   25   25   25   25   11   25   25   25   18   11   20   25   23   10   11   25   12   14   11   10   24   18   23   25   25   23    0   24   10   24   25   24   25   24   16   21   12   25   23   11   25   21    4   12    0
   -1   -1   -1   -1   23   24   23   24   24   24   24   10   24   24   24   14   21   15   24   19   11   21   24   15   18   15   12   23   14   18   24   24   21    0    0   11   23   24   23   24   23   12   16   23   24   18   12   24   23   12   15    0
   -1   -1   -1   -1   23   25   24   25   25   25   25   10   25   25   25   16   19   18   24   21    4   19   25   12   15   13   10   24   16   21   24   25   23   11   24    0   24   25   23   25   24   15   20   21   25   21   11   24   23   10   12    0
   -1   -1   -1   -1   -1   -1   -1   -1   -1   -1   -1   -1   -1   -1   -1   -1   -1   -1   -1   -1   -1   -1   -1   -1   -1   -1   -1   -1   -1   -1   -1   33   -1   -1   -1   23    0   33   30   33   31   25   27   23   33   28   23   31   10   23   18    0
   -1   -1   -1   -1   -1   -1   -1   -1   -1   -1   -1   -1   -1   -1   -1   -1   -1   -1   -1   -1   -1   -1   -1   -1   -1   -1   -1   -1   -1   -1   -1   27   -1   -1   -1   -1   26    0   25   27   26   21   23   14   27   24   14   27   16   12    9    0
   -1   -1   -1   -1   12    0   14    0    0    0    0   24    0    0    0   21   24   20   10   18   25   24    0   27   28   24   25   11   21   16   10    0   18   24   12   25   14    0    0    0   11   23   18   24    0   16   24   10   31   25   27    0
   -1   -1   -1   -1   -1   -1   -1   -1   -1   -1   -1   -1   -1   -1   -1   -1   -1   -1   -1   -1   -1   -1   -1   -1   -1   -1   -1   -1   -1   -1   -1   27   -1   -1   -1   -1   26   27   25    0   26   21   23   14   27   24   14   27   16   12   10    0
   -1   -1   -1   -1   12    0   14    0    0    0    0   24    0    0    0   21   24   20   10   18   25   24    0   27   28   24   25   11   21   16   10    0   18   24   12   25   14    0   12    0    0   23   18   24    0   16   24   10   31   25   27    0
   -1   -1   -1   -1   16   23   18   23   23   23   23   14   23   23   23   10   21   11   21   19   15   21   23   21   23   15   16   20   10   12   21   23   19   12   18   15   20   23   16   23   20    0   12   23   23   15   14   21   25   16   21    0
   -1   -1   -1   -1   11   15   13   15   15   15   15   21   15   15   15   12   21   12   14   18   23   21   15   24   25   21   23   12   12   10   14   15   18   20   12   23   13   15   11   15   12   14    0   21   15   13   21   14   28   23   24    0
   -1   -1   -1   -1   16   23   18   23   23   23   23   14   23   23   23   10   21   11   21   19   15   21   23   21   23   15   16   20   10   12   21   23   19   12   18   15   20   23   16   23   20   11   12    0   23   15   14   21   25   16   21    0
   -1   -1   -1   -1   -1   -1   -1   -1   -1   -1   -1   -1   -1   -1   -1   -1   -1   -1   -1   -1   -1   -1   -1   -1   -1   -1   -1   -1   -1   -1   -1   -1   -1   -1   -1   -1   24   24   -1   24   -1   -1   -1    8    0   20    2   24   23   11   15    0
   -1   -1   -1   -1   -1   -1   -1   -1   -1   -1   -1   -1   -1   -1   -1   -1   -1   -1   -1   -1   -1   -1   -1   -1   -1   -1   -1   -1   -1   -1   -1   -1   -1   -1   -1   -1   31   33   -1   33   -1   -1   -1   -1   33    0   23   31   10   23   18    0
   -1   -1   -1   -1   12   16   15   16   16   16   16   20   16   16   16   12   21   11   15   19   21   21   16   24   24   20   23   14   12    0   15   16   19   18   12   21   15   16   12   16   14   12   10   23   16   15    0   15   27   23   24    0
   -1   -1   -1   -1   -1   -1   -1   -1   -1   -1   -1   -1   -1   -1   -1   -1   -1   -1   -1   -1   -1   -1   -1   -1   -1   24   -1   -1   -1   -1   -1    0   18   24   12   25   14    0   12    0   11   23   18   24    0   16   24    0   31   25   27    0
   -1   -1   -1   -1   -1   -1   -1   -1   -1   -1   -1   -1   -1   -1   -1   -1   -1   -1   -1   -1   -1   -1   -1   -1   -1   -1   -1   -1   -1   -1   -1   31   -1   -1   -1   23   31   31   29   31   31   25   27   23   31   27   23   31    0   21   19    0
   -1   -1   -1   -1   -1   -1   -1   -1   -1   -1   -1   -1   -1   -1   -1   -1   -1   -1   -1   -1   -1   -1   -1   -1   -1   -1   -1   -1   -1   -1   -1   31   -1   -1   -1   23   31   31   29   31   31   25   27   23   31   27   23   31    0    0   16    0
   -1   -1   -1   -1   -1   -1   -1   -1   -1   -1   -1   -1   -1   -1   -1   -1   -1   -1   -1   -1   -1   -1   -1   -1   -1   -1   -1   -1   -1   -1   -1   -1   -1   -1   -1   -1   25   27   -1   27   -1   -1   -1   -1   27   23   12   26   18   11    0    0
   -1   -1   -1   -1   -1   -1   -1   -1   -1   -1   -1   -1   -1   -1   -1   -1   -1   -1   -1   -1   -1   -1   -1   -1   -1   -1   -1   -1   -1   -1   -1   -1   -1   -1   -1   -1   -1   -1   -1   -1   -1   -1   -1   -1   -1   -1   -1   -1   -1   -1   -1    0
EOF
